p cnf 13 22
-5 -2 -3 -10 0
12 10 -4 -1 11 -13 -5 -3 -9 8 -7 -6 0
13 8 6 -4 -9 -10 7 12 1 3 11 0
-10 12 -4 0
-12 10 13 0
3 -13 0
4 9 -7 11 0
1 -2 12 -3 0
5 -1 4 0
10 7 1 2 3 5 12 11 0
-1 -9 0
-8 2 6 -1 -12 -3 7 -9 13 -11 10 0
9 -1 10 4 0
5 4 13 0
6 10 0
9 -11 1 13 -2 4 -5 8 -10 0
13 -3 -11 -8 0
7 -12 0
3 -5 12 10 0
-12 -13 1 0
-1 -9 0
6 -10 0
